p cnf 1237 2610
1 2 0
3 2 0
4 2 0
-1 -3 -4 -2 0
2 -5 -6 0
5 -2 -6 0
6 -2 -5 0
5 2 6 0
-6 0
3 7 0
4 7 0
-3 -4 -7 0
7 -8 -9 0
8 -7 -9 0
9 -7 -8 0
8 7 9 0
-9 0
7 -10 -11 0
10 -7 -11 0
11 -7 -10 0
10 7 11 0
-11 0
12 13 0
14 13 0
15 13 0
-12 -14 -15 -13 0
13 -16 -17 0
16 -13 -17 0
17 -13 -16 0
16 13 17 0
-17 0
14 18 0
15 18 0
-14 -15 -18 0
18 -19 -20 0
19 -18 -20 0
20 -18 -19 0
19 18 20 0
-20 0
21 -15 0
15 -21 0
22 23 0
24 23 0
25 23 0
26 23 0
27 23 0
28 23 0
29 23 0
-30 0
23 -31 -32 0
31 -23 -32 0
32 -23 -31 0
31 23 32 0
-32 0
24 33 0
25 33 0
26 33 0
27 33 0
28 33 0
29 33 0
-34 0
33 -35 -36 0
35 -33 -36 0
36 -33 -35 0
35 33 36 0
-36 0
25 37 0
26 37 0
27 37 0
28 37 0
29 37 0
-38 0
37 -39 -40 0
39 -37 -40 0
40 -37 -39 0
39 37 40 0
-40 0
26 41 0
27 41 0
28 41 0
29 41 0
-42 0
41 -43 -44 0
43 -41 -44 0
44 -41 -43 0
43 41 44 0
-44 0
27 45 0
28 45 0
29 45 0
-27 -28 -29 -45 0
45 -46 -47 0
46 -45 -47 0
47 -45 -46 0
46 45 47 0
-47 0
45 -48 -49 0
48 -45 -49 0
49 -45 -48 0
48 45 49 0
-49 0
45 -50 -51 0
50 -45 -51 0
51 -45 -50 0
50 45 51 0
-51 0
52 53 0
54 53 0
55 53 0
-52 -54 -55 -53 0
53 -56 -57 0
56 -53 -57 0
57 -53 -56 0
56 53 57 0
-57 0
54 58 0
55 58 0
-54 -55 -58 0
58 -59 -60 0
59 -58 -60 0
60 -58 -59 0
59 58 60 0
-60 0
61 -55 0
55 -61 0
55 62 0
63 62 0
-55 -63 -62 0
62 -64 -65 0
64 -62 -65 0
65 -62 -64 0
64 62 65 0
-65 0
66 67 0
68 67 0
69 67 0
70 67 0
71 67 0
72 67 0
-73 0
67 -74 -75 0
74 -67 -75 0
75 -67 -74 0
74 67 75 0
-75 0
68 76 0
69 76 0
70 76 0
71 76 0
72 76 0
-77 0
76 -78 -79 0
78 -76 -79 0
79 -76 -78 0
78 76 79 0
-79 0
69 80 0
70 80 0
71 80 0
72 80 0
-81 0
80 -82 -83 0
82 -80 -83 0
83 -80 -82 0
82 80 83 0
-83 0
70 84 0
71 84 0
72 84 0
-70 -71 -72 -84 0
84 -85 -86 0
85 -84 -86 0
86 -84 -85 0
85 84 86 0
-86 0
84 -87 -88 0
87 -84 -88 0
88 -84 -87 0
87 84 88 0
-88 0
84 -89 -90 0
89 -84 -90 0
90 -84 -89 0
89 84 90 0
-90 0
27 91 0
28 91 0
29 91 0
92 91 0
93 91 0
-94 0
91 -95 -96 0
95 -91 -96 0
96 -91 -95 0
95 91 96 0
-96 0
27 97 0
28 97 0
29 97 0
93 97 0
-98 0
97 -99 -100 0
99 -97 -100 0
100 -97 -99 0
99 97 100 0
-100 0
27 101 0
28 101 0
29 101 0
93 101 0
102 101 0
103 101 0
104 101 0
-105 0
101 -106 -107 0
106 -101 -107 0
107 -101 -106 0
106 101 107 0
-107 0
27 108 0
28 108 0
29 108 0
93 108 0
103 108 0
104 108 0
-109 0
108 -110 -111 0
110 -108 -111 0
111 -108 -110 0
110 108 111 0
-111 0
27 112 0
28 112 0
29 112 0
93 112 0
104 112 0
-113 0
112 -114 -115 0
114 -112 -115 0
115 -112 -114 0
114 112 115 0
-115 0
116 117 0
118 117 0
119 117 0
120 117 0
121 117 0
122 117 0
-123 0
117 -124 -125 0
124 -117 -125 0
125 -117 -124 0
124 117 125 0
-125 0
118 126 0
119 126 0
120 126 0
121 126 0
122 126 0
-127 0
126 -128 -129 0
128 -126 -129 0
129 -126 -128 0
128 126 129 0
-129 0
119 130 0
120 130 0
121 130 0
122 130 0
-131 0
130 -132 -133 0
132 -130 -133 0
133 -130 -132 0
132 130 133 0
-133 0
130 -134 -135 0
134 -130 -135 0
135 -130 -134 0
134 130 135 0
-135 0
130 -136 -137 0
136 -130 -137 0
137 -130 -136 0
136 130 137 0
-137 0
130 -138 -139 0
138 -130 -139 0
139 -130 -138 0
138 130 139 0
-139 0
140 141 0
142 141 0
143 141 0
144 141 0
145 141 0
146 141 0
147 141 0
-148 0
141 -149 -150 0
149 -141 -150 0
150 -141 -149 0
149 141 150 0
-150 0
142 151 0
143 151 0
144 151 0
145 151 0
146 151 0
147 151 0
-152 0
151 -153 -154 0
153 -151 -154 0
154 -151 -153 0
153 151 154 0
-154 0
143 155 0
144 155 0
145 155 0
146 155 0
147 155 0
-156 0
155 -157 -158 0
157 -155 -158 0
158 -155 -157 0
157 155 158 0
-158 0
144 159 0
145 159 0
146 159 0
147 159 0
-160 0
159 -161 -162 0
161 -159 -162 0
162 -159 -161 0
161 159 162 0
-162 0
159 -163 -164 0
163 -159 -164 0
164 -159 -163 0
163 159 164 0
-164 0
159 -165 -166 0
165 -159 -166 0
166 -159 -165 0
165 159 166 0
-166 0
159 -167 -168 0
167 -159 -168 0
168 -159 -167 0
167 159 168 0
-168 0
118 169 0
119 169 0
120 169 0
121 169 0
122 169 0
170 169 0
-171 0
169 -172 -173 0
172 -169 -173 0
173 -169 -172 0
172 169 173 0
-173 0
144 174 0
145 174 0
146 174 0
147 174 0
175 174 0
-176 0
174 -177 -178 0
177 -174 -178 0
178 -174 -177 0
177 174 178 0
-178 0
1 179 0
3 179 0
4 179 0
180 179 0
-181 0
179 -182 -183 0
182 -179 -183 0
183 -179 -182 0
182 179 183 0
-183 0
3 184 0
4 184 0
185 184 0
186 184 0
187 184 0
-188 0
184 -189 -190 0
189 -184 -190 0
190 -184 -189 0
189 184 190 0
-190 0
3 191 0
4 191 0
186 191 0
187 191 0
-192 0
191 -193 -194 0
193 -191 -194 0
194 -191 -193 0
193 191 194 0
-194 0
3 195 0
4 195 0
187 195 0
-3 -4 -187 -195 0
195 -196 -197 0
196 -195 -197 0
197 -195 -196 0
196 195 197 0
-197 0
1 198 0
3 198 0
4 198 0
199 198 0
-200 0
198 -201 -202 0
201 -198 -202 0
202 -198 -201 0
201 198 202 0
-202 0
144 203 0
145 203 0
146 203 0
147 203 0
204 203 0
205 203 0
206 203 0
-207 0
203 -208 -209 0
208 -203 -209 0
209 -203 -208 0
208 203 209 0
-209 0
144 210 0
145 210 0
146 210 0
147 210 0
205 210 0
206 210 0
-211 0
210 -212 -213 0
212 -210 -213 0
213 -210 -212 0
212 210 213 0
-213 0
144 214 0
145 214 0
146 214 0
147 214 0
206 214 0
-215 0
214 -216 -217 0
216 -214 -217 0
217 -214 -216 0
216 214 217 0
-217 0
1 218 0
3 218 0
4 218 0
199 218 0
219 218 0
-220 0
218 -221 -222 0
221 -218 -222 0
222 -218 -221 0
221 218 222 0
-222 0
69 223 0
70 223 0
71 223 0
72 223 0
224 223 0
225 223 0
226 223 0
-227 0
223 -228 -229 0
228 -223 -229 0
229 -223 -228 0
228 223 229 0
-229 0
69 230 0
70 230 0
71 230 0
72 230 0
225 230 0
226 230 0
-231 0
230 -232 -233 0
232 -230 -233 0
233 -230 -232 0
232 230 233 0
-233 0
69 234 0
70 234 0
71 234 0
72 234 0
226 234 0
-235 0
234 -236 -237 0
236 -234 -237 0
237 -234 -236 0
236 234 237 0
-237 0
55 238 0
63 238 0
239 238 0
240 238 0
-241 0
238 -242 -243 0
242 -238 -243 0
243 -238 -242 0
242 238 243 0
-243 0
55 244 0
63 244 0
240 244 0
-55 -63 -240 -244 0
244 -245 -246 0
245 -244 -246 0
246 -244 -245 0
245 244 246 0
-246 0
55 247 0
63 247 0
248 247 0
-55 -63 -248 -247 0
247 -249 -250 0
249 -247 -250 0
250 -247 -249 0
249 247 250 0
-250 0
251 252 0
253 252 0
254 252 0
255 252 0
256 252 0
-257 0
-258 252 -259 0
258 -252 -259 0
259 -252 -258 0
258 252 259 0
-259 0
253 260 0
254 260 0
255 260 0
256 260 0
-261 0
260 -262 -263 0
262 -260 -263 0
263 -260 -262 0
262 260 263 0
-263 0
254 264 0
255 264 0
256 264 0
-254 -255 -256 -264 0
264 -265 -266 0
265 -264 -266 0
266 -264 -265 0
265 264 266 0
-266 0
264 -267 -268 0
267 -264 -268 0
268 -264 -267 0
267 264 268 0
-268 0
264 -269 -270 0
269 -264 -270 0
270 -264 -269 0
269 264 270 0
-270 0
271 272 0
273 272 0
274 272 0
275 272 0
276 272 0
277 272 0
278 272 0
279 272 0
-280 0
-281 272 -282 0
281 -272 -282 0
282 -272 -281 0
281 272 282 0
-282 0
273 283 0
274 283 0
275 283 0
276 283 0
277 283 0
278 283 0
279 283 0
-284 0
283 -285 -286 0
285 -283 -286 0
286 -283 -285 0
285 283 286 0
-286 0
274 287 0
275 287 0
276 287 0
277 287 0
278 287 0
279 287 0
-288 0
287 -289 -290 0
289 -287 -290 0
290 -287 -289 0
289 287 290 0
-290 0
275 291 0
276 291 0
277 291 0
278 291 0
279 291 0
-292 0
291 -293 -294 0
293 -291 -294 0
294 -291 -293 0
293 291 294 0
-294 0
276 295 0
277 295 0
278 295 0
279 295 0
-296 0
295 -297 -298 0
297 -295 -298 0
298 -295 -297 0
297 295 298 0
-298 0
295 -299 -300 0
299 -295 -300 0
300 -295 -299 0
299 295 300 0
-300 0
295 -301 -302 0
301 -295 -302 0
302 -295 -301 0
301 295 302 0
-302 0
295 -303 -304 0
303 -295 -304 0
304 -295 -303 0
303 295 304 0
-304 0
305 306 0
307 306 0
308 306 0
309 306 0
310 306 0
311 306 0
312 306 0
-313 0
-314 306 -315 0
314 -306 -315 0
315 -306 -314 0
314 306 315 0
-315 0
307 316 0
308 316 0
309 316 0
310 316 0
311 316 0
312 316 0
-317 0
316 -318 -319 0
318 -316 -319 0
319 -316 -318 0
318 316 319 0
-319 0
308 320 0
309 320 0
310 320 0
311 320 0
312 320 0
-321 0
320 -322 -323 0
322 -320 -323 0
323 -320 -322 0
322 320 323 0
-323 0
309 324 0
310 324 0
311 324 0
312 324 0
-325 0
324 -326 -327 0
326 -324 -327 0
327 -324 -326 0
326 324 327 0
-327 0
324 -328 -329 0
328 -324 -329 0
329 -324 -328 0
328 324 329 0
-329 0
324 -330 -331 0
330 -324 -331 0
331 -324 -330 0
330 324 331 0
-331 0
324 -332 -333 0
332 -324 -333 0
333 -324 -332 0
332 324 333 0
-333 0
144 334 0
145 334 0
146 334 0
147 334 0
335 334 0
336 334 0
337 334 0
-338 0
-339 334 -340 0
339 -334 -340 0
340 -334 -339 0
339 334 340 0
-340 0
144 341 0
145 341 0
146 341 0
147 341 0
336 341 0
337 341 0
-342 0
341 -343 -344 0
343 -341 -344 0
344 -341 -343 0
343 341 344 0
-344 0
144 345 0
145 345 0
146 345 0
147 345 0
337 345 0
-346 0
345 -347 -348 0
347 -345 -348 0
348 -345 -347 0
347 345 348 0
-348 0
349 350 0
351 350 0
352 350 0
353 350 0
354 350 0
355 350 0
-356 0
-357 350 -358 0
357 -350 -358 0
358 -350 -357 0
357 350 358 0
-358 0
351 359 0
352 359 0
353 359 0
354 359 0
355 359 0
-360 0
359 -361 -362 0
361 -359 -362 0
362 -359 -361 0
361 359 362 0
-362 0
352 363 0
353 363 0
354 363 0
355 363 0
-364 0
363 -365 -366 0
365 -363 -366 0
366 -363 -365 0
365 363 366 0
-366 0
353 367 0
354 367 0
355 367 0
-353 -354 -355 -367 0
367 -368 -369 0
368 -367 -369 0
369 -367 -368 0
368 367 369 0
-369 0
354 370 0
355 370 0
-354 -355 -370 0
370 -371 -372 0
371 -370 -372 0
372 -370 -371 0
371 370 372 0
-372 0
370 -373 -374 0
373 -370 -374 0
374 -370 -373 0
373 370 374 0
-374 0
375 376 0
377 376 0
378 376 0
379 376 0
380 376 0
381 376 0
382 376 0
-383 0
-384 376 -385 0
384 -376 -385 0
385 -376 -384 0
384 376 385 0
-385 0
377 386 0
378 386 0
379 386 0
380 386 0
381 386 0
382 386 0
-387 0
386 -388 -389 0
388 -386 -389 0
389 -386 -388 0
388 386 389 0
-389 0
378 390 0
379 390 0
380 390 0
381 390 0
382 390 0
-391 0
390 -392 -393 0
392 -390 -393 0
393 -390 -392 0
392 390 393 0
-393 0
379 394 0
380 394 0
381 394 0
382 394 0
-395 0
394 -396 -397 0
396 -394 -397 0
397 -394 -396 0
396 394 397 0
-397 0
380 398 0
381 398 0
382 398 0
-380 -381 -382 -398 0
398 -399 -400 0
399 -398 -400 0
400 -398 -399 0
399 398 400 0
-400 0
398 -401 -402 0
401 -398 -402 0
402 -398 -401 0
401 398 402 0
-402 0
398 -403 -404 0
403 -398 -404 0
404 -398 -403 0
403 398 404 0
-404 0
405 406 0
407 406 0
408 406 0
409 406 0
410 406 0
411 406 0
-412 0
-413 406 -414 0
413 -406 -414 0
414 -406 -413 0
413 406 414 0
-414 0
407 415 0
408 415 0
409 415 0
410 415 0
411 415 0
-416 0
415 -417 -418 0
417 -415 -418 0
418 -415 -417 0
417 415 418 0
-418 0
408 419 0
409 419 0
410 419 0
411 419 0
-420 0
419 -421 -422 0
421 -419 -422 0
422 -419 -421 0
421 419 422 0
-422 0
419 -423 -424 0
423 -419 -424 0
424 -419 -423 0
423 419 424 0
-424 0
419 -425 -426 0
425 -419 -426 0
426 -419 -425 0
425 419 426 0
-426 0
419 -427 -428 0
427 -419 -428 0
428 -419 -427 0
427 419 428 0
-428 0
429 430 0
431 430 0
432 430 0
433 430 0
434 430 0
435 430 0
436 430 0
-437 0
-438 430 -439 0
438 -430 -439 0
439 -430 -438 0
438 430 439 0
-439 0
431 440 0
432 440 0
433 440 0
434 440 0
435 440 0
436 440 0
-441 0
440 -442 -443 0
442 -440 -443 0
443 -440 -442 0
442 440 443 0
-443 0
432 444 0
433 444 0
434 444 0
435 444 0
436 444 0
-445 0
444 -446 -447 0
446 -444 -447 0
447 -444 -446 0
446 444 447 0
-447 0
433 448 0
434 448 0
435 448 0
436 448 0
-449 0
448 -450 -451 0
450 -448 -451 0
451 -448 -450 0
450 448 451 0
-451 0
434 452 0
435 452 0
436 452 0
-434 -435 -436 -452 0
452 -453 -454 0
453 -452 -454 0
454 -452 -453 0
453 452 454 0
-454 0
452 -455 -456 0
455 -452 -456 0
456 -452 -455 0
455 452 456 0
-456 0
452 -457 -458 0
457 -452 -458 0
458 -452 -457 0
457 452 458 0
-458 0
459 460 0
461 460 0
462 460 0
463 460 0
464 460 0
465 460 0
-466 0
-467 460 -468 0
467 -460 -468 0
468 -460 -467 0
467 460 468 0
-468 0
461 469 0
462 469 0
463 469 0
464 469 0
465 469 0
-470 0
469 -471 -472 0
471 -469 -472 0
472 -469 -471 0
471 469 472 0
-472 0
462 473 0
463 473 0
464 473 0
465 473 0
-474 0
473 -475 -476 0
475 -473 -476 0
476 -473 -475 0
475 473 476 0
-476 0
463 477 0
464 477 0
465 477 0
-463 -464 -465 -477 0
477 -478 -479 0
478 -477 -479 0
479 -477 -478 0
478 477 479 0
-479 0
477 -480 -481 0
480 -477 -481 0
481 -477 -480 0
480 477 481 0
-481 0
477 -482 -483 0
482 -477 -483 0
483 -477 -482 0
482 477 483 0
-483 0
380 484 0
381 484 0
382 484 0
485 484 0
486 484 0
487 484 0
-488 0
-489 484 -490 0
489 -484 -490 0
490 -484 -489 0
489 484 490 0
-490 0
380 491 0
381 491 0
382 491 0
486 491 0
487 491 0
-492 0
491 -493 -494 0
493 -491 -494 0
494 -491 -493 0
493 491 494 0
-494 0
380 495 0
381 495 0
382 495 0
487 495 0
-496 0
495 -497 -498 0
497 -495 -498 0
498 -495 -497 0
497 495 498 0
-498 0
354 499 0
355 499 0
500 499 0
501 499 0
-502 0
-503 499 -504 0
503 -499 -504 0
504 -499 -503 0
503 499 504 0
-504 0
354 505 0
355 505 0
501 505 0
-354 -355 -501 -505 0
505 -506 -507 0
506 -505 -507 0
507 -505 -506 0
506 505 507 0
-507 0
508 509 0
510 509 0
511 509 0
512 509 0
513 509 0
-514 0
-515 509 -516 0
515 -509 -516 0
516 -509 -515 0
515 509 516 0
-516 0
510 517 0
511 517 0
512 517 0
513 517 0
-518 0
517 -519 -520 0
519 -517 -520 0
520 -517 -519 0
519 517 520 0
-520 0
511 521 0
512 521 0
513 521 0
-511 -512 -513 -521 0
521 -522 -523 0
522 -521 -523 0
523 -521 -522 0
522 521 523 0
-523 0
512 524 0
513 524 0
-512 -513 -524 0
524 -525 -526 0
525 -524 -526 0
526 -524 -525 0
525 524 526 0
-526 0
524 -527 -528 0
527 -524 -528 0
528 -524 -527 0
527 524 528 0
-528 0
529 530 0
531 530 0
532 530 0
533 530 0
534 530 0
535 530 0
-536 0
-537 530 -538 0
537 -530 -538 0
538 -530 -537 0
537 530 538 0
-538 0
531 539 0
532 539 0
533 539 0
534 539 0
535 539 0
-540 0
539 -541 -542 0
541 -539 -542 0
542 -539 -541 0
541 539 542 0
-542 0
532 543 0
533 543 0
534 543 0
535 543 0
-544 0
543 -545 -546 0
545 -543 -546 0
546 -543 -545 0
545 543 546 0
-546 0
533 547 0
534 547 0
535 547 0
-533 -534 -535 -547 0
547 -548 -549 0
548 -547 -549 0
549 -547 -548 0
548 547 549 0
-549 0
547 -550 -551 0
550 -547 -551 0
551 -547 -550 0
550 547 551 0
-551 0
547 -552 -553 0
552 -547 -553 0
553 -547 -552 0
552 547 553 0
-553 0
554 555 0
556 555 0
557 555 0
70 555 0
71 555 0
72 555 0
-558 0
-559 555 -560 0
559 -555 -560 0
560 -555 -559 0
559 555 560 0
-560 0
556 561 0
557 561 0
70 561 0
71 561 0
72 561 0
-562 0
561 -563 -564 0
563 -561 -564 0
564 -561 -563 0
563 561 564 0
-564 0
557 565 0
70 565 0
71 565 0
72 565 0
-566 0
565 -567 -568 0
567 -565 -568 0
568 -565 -567 0
567 565 568 0
-568 0
569 570 0
571 570 0
572 570 0
573 570 0
574 570 0
575 570 0
576 570 0
577 570 0
-578 0
-579 570 -580 0
579 -570 -580 0
580 -570 -579 0
579 570 580 0
-580 0
571 581 0
572 581 0
573 581 0
574 581 0
575 581 0
576 581 0
577 581 0
-582 0
581 -583 -584 0
583 -581 -584 0
584 -581 -583 0
583 581 584 0
-584 0
572 585 0
573 585 0
574 585 0
575 585 0
576 585 0
577 585 0
-586 0
585 -587 -588 0
587 -585 -588 0
588 -585 -587 0
587 585 588 0
-588 0
573 589 0
574 589 0
575 589 0
576 589 0
577 589 0
-590 0
589 -591 -592 0
591 -589 -592 0
592 -589 -591 0
591 589 592 0
-592 0
574 593 0
575 593 0
576 593 0
577 593 0
-594 0
593 -595 -596 0
595 -593 -596 0
596 -593 -595 0
595 593 596 0
-596 0
593 -597 -598 0
597 -593 -598 0
598 -593 -597 0
597 593 598 0
-598 0
593 -599 -600 0
599 -593 -600 0
600 -593 -599 0
599 593 600 0
-600 0
593 -601 -602 0
601 -593 -602 0
602 -593 -601 0
601 593 602 0
-602 0
603 604 0
605 604 0
606 604 0
607 604 0
608 604 0
-609 0
-610 604 -611 0
610 -604 -611 0
611 -604 -610 0
610 604 611 0
-611 0
605 612 0
606 612 0
607 612 0
608 612 0
-613 0
612 -614 -615 0
614 -612 -615 0
615 -612 -614 0
614 612 615 0
-615 0
606 616 0
607 616 0
608 616 0
-606 -607 -608 -616 0
616 -617 -618 0
617 -616 -618 0
618 -616 -617 0
617 616 618 0
-618 0
607 619 0
608 619 0
-607 -608 -619 0
619 -620 -621 0
620 -619 -621 0
621 -619 -620 0
620 619 621 0
-621 0
619 -622 -623 0
622 -619 -623 0
623 -619 -622 0
622 619 623 0
-623 0
624 625 0
626 625 0
627 625 0
628 625 0
-629 0
-630 625 -631 0
630 -625 -631 0
631 -625 -630 0
630 625 631 0
-631 0
626 632 0
627 632 0
628 632 0
-626 -627 -628 -632 0
632 -633 -634 0
633 -632 -634 0
634 -632 -633 0
633 632 634 0
-634 0
627 635 0
628 635 0
-627 -628 -635 0
635 -636 -637 0
636 -635 -637 0
637 -635 -636 0
636 635 637 0
-637 0
638 -628 0
628 -638 0
144 639 0
145 639 0
146 639 0
147 639 0
337 639 0
640 639 0
-641 0
-642 639 -643 0
642 -639 -643 0
643 -639 -642 0
642 639 643 0
-643 0
511 644 0
512 644 0
513 644 0
645 644 0
-646 0
-647 644 -648 0
647 -644 -648 0
648 -644 -647 0
647 644 648 0
-648 0
649 650 0
651 650 0
652 650 0
653 650 0
-654 0
-655 650 -656 0
655 -650 -656 0
656 -650 -655 0
655 650 656 0
-656 0
651 657 0
652 657 0
653 657 0
-651 -652 -653 -657 0
657 -658 -659 0
658 -657 -659 0
659 -657 -658 0
658 657 659 0
-659 0
652 660 0
653 660 0
-652 -653 -660 0
660 -661 -662 0
661 -660 -662 0
662 -660 -661 0
661 660 662 0
-662 0
660 -663 -664 0
663 -660 -664 0
664 -660 -663 0
663 660 664 0
-664 0
354 665 0
355 665 0
666 665 0
667 665 0
668 665 0
669 665 0
-670 0
-671 665 -672 0
671 -665 -672 0
672 -665 -671 0
671 665 672 0
-672 0
354 673 0
355 673 0
667 673 0
668 673 0
669 673 0
-674 0
673 -675 -676 0
675 -673 -676 0
676 -673 -675 0
675 673 676 0
-676 0
354 677 0
355 677 0
668 677 0
669 677 0
-678 0
677 -679 -680 0
679 -677 -680 0
680 -677 -679 0
679 677 680 0
-680 0
354 681 0
355 681 0
669 681 0
-354 -355 -669 -681 0
681 -682 -683 0
682 -681 -683 0
683 -681 -682 0
682 681 683 0
-683 0
684 685 0
686 685 0
379 685 0
380 685 0
381 685 0
382 685 0
-687 0
-688 685 -689 0
688 -685 -689 0
689 -685 -688 0
688 685 689 0
-689 0
686 690 0
379 690 0
380 690 0
381 690 0
382 690 0
-691 0
690 -692 -693 0
692 -690 -693 0
693 -690 -692 0
692 690 693 0
-693 0
694 695 0
696 695 0
697 695 0
354 695 0
355 695 0
-698 0
-699 695 -700 0
699 -695 -700 0
700 -695 -699 0
699 695 700 0
-700 0
696 701 0
697 701 0
354 701 0
355 701 0
-702 0
701 -703 -704 0
703 -701 -704 0
704 -701 -703 0
703 701 704 0
-704 0
697 705 0
354 705 0
355 705 0
-354 -355 -697 -705 0
705 -706 -707 0
706 -705 -707 0
707 -705 -706 0
706 705 707 0
-707 0
708 709 0
710 709 0
-708 -710 -709 0
-711 709 -712 0
711 -709 -712 0
712 -709 -711 0
711 709 712 0
-712 0
713 -710 0
710 -713 0
714 715 0
716 715 0
717 715 0
718 715 0
-719 0
-720 715 -721 0
720 -715 -721 0
721 -715 -720 0
720 715 721 0
-721 0
715 -722 -723 0
722 -715 -723 0
723 -715 -722 0
722 715 723 0
-723 0
715 -724 -725 0
724 -715 -725 0
725 -715 -724 0
724 715 725 0
-725 0
715 -726 -727 0
726 -715 -727 0
727 -715 -726 0
726 715 727 0
-727 0
728 -729 0
730 728 0
729 -730 -728 0
1 -728 0
-1 728 0
731 -732 0
733 731 0
732 -733 -731 0
3 -731 0
-3 731 0
734 -735 0
736 734 0
735 -736 -734 0
4 -734 0
-4 734 0
737 -738 0
739 737 0
738 -739 -737 0
12 -737 0
-12 737 0
740 -741 0
742 740 0
741 -742 -740 0
14 -740 0
-14 740 0
743 -744 0
745 743 0
744 -745 -743 0
15 -743 0
-15 743 0
746 -747 0
748 746 0
747 -748 -746 0
22 -746 0
-22 746 0
749 -750 0
751 749 0
750 -751 -749 0
24 -749 0
-24 749 0
752 -753 0
754 752 0
753 -754 -752 0
25 -752 0
-25 752 0
755 -756 0
757 755 0
756 -757 -755 0
26 -755 0
-26 755 0
758 -759 0
760 758 0
759 -760 -758 0
27 -758 0
-27 758 0
761 -762 0
763 761 0
762 -763 -761 0
28 -761 0
-28 761 0
764 -765 0
766 764 0
765 -766 -764 0
29 -764 0
-29 764 0
767 -768 0
769 767 0
768 -769 -767 0
52 -767 0
-52 767 0
770 -771 0
772 770 0
771 -772 -770 0
54 -770 0
-54 770 0
773 -774 0
775 773 0
774 -775 -773 0
55 -773 0
-55 773 0
776 -777 0
778 776 0
777 -778 -776 0
63 -776 0
-63 776 0
779 -780 0
781 779 0
780 -781 -779 0
66 -779 0
-66 779 0
782 -783 0
784 782 0
783 -784 -782 0
68 -782 0
-68 782 0
785 -786 0
787 785 0
786 -787 -785 0
69 -785 0
-69 785 0
788 -789 0
790 788 0
789 -790 -788 0
70 -788 0
-70 788 0
791 -792 0
793 791 0
792 -793 -791 0
71 -791 0
-71 791 0
794 -795 0
796 794 0
795 -796 -794 0
72 -794 0
-72 794 0
797 -798 0
799 797 0
798 -799 -797 0
92 -797 0
-92 797 0
800 -801 0
802 800 0
801 -802 -800 0
93 -800 0
-93 800 0
803 -804 0
805 803 0
804 -805 -803 0
102 -803 0
-102 803 0
806 -807 0
808 806 0
807 -808 -806 0
103 -806 0
-103 806 0
809 -810 0
811 809 0
810 -811 -809 0
104 -809 0
-104 809 0
812 -813 0
814 812 0
813 -814 -812 0
116 -812 0
-116 812 0
815 -816 0
817 815 0
816 -817 -815 0
118 -815 0
-118 815 0
818 -819 0
820 818 0
819 -820 -818 0
119 -818 0
-119 818 0
821 -822 0
823 821 0
822 -823 -821 0
120 -821 0
-120 821 0
824 -825 0
826 824 0
825 -826 -824 0
121 -824 0
-121 824 0
827 -828 0
829 827 0
828 -829 -827 0
122 -827 0
-122 827 0
830 -831 0
832 830 0
831 -832 -830 0
140 -830 0
-140 830 0
833 -834 0
835 833 0
834 -835 -833 0
142 -833 0
-142 833 0
836 -837 0
838 836 0
837 -838 -836 0
143 -836 0
-143 836 0
839 -840 0
841 839 0
840 -841 -839 0
144 -839 0
-144 839 0
842 -843 0
844 842 0
843 -844 -842 0
145 -842 0
-145 842 0
845 -846 0
847 845 0
846 -847 -845 0
146 -845 0
-146 845 0
848 -849 0
850 848 0
849 -850 -848 0
147 -848 0
-147 848 0
851 -852 0
853 851 0
852 -853 -851 0
170 -851 0
-170 851 0
854 -855 0
856 854 0
855 -856 -854 0
175 -854 0
-175 854 0
857 -858 0
859 857 0
858 -859 -857 0
180 -857 0
-180 857 0
860 -861 0
862 860 0
861 -862 -860 0
185 -860 0
-185 860 0
863 -864 0
865 863 0
864 -865 -863 0
186 -863 0
-186 863 0
866 -867 0
868 866 0
867 -868 -866 0
187 -866 0
-187 866 0
869 -870 0
871 869 0
870 -871 -869 0
199 -869 0
-199 869 0
872 -873 0
874 872 0
873 -874 -872 0
204 -872 0
-204 872 0
875 -876 0
877 875 0
876 -877 -875 0
205 -875 0
-205 875 0
878 -879 0
880 878 0
879 -880 -878 0
206 -878 0
-206 878 0
881 -882 0
883 881 0
882 -883 -881 0
219 -881 0
-219 881 0
884 -885 0
886 884 0
885 -886 -884 0
224 -884 0
-224 884 0
887 -888 0
889 887 0
888 -889 -887 0
225 -887 0
-225 887 0
890 -891 0
892 890 0
891 -892 -890 0
226 -890 0
-226 890 0
893 -894 0
895 893 0
894 -895 -893 0
239 -893 0
-239 893 0
896 -897 0
898 896 0
897 -898 -896 0
240 -896 0
-240 896 0
899 -900 0
901 899 0
900 -901 -899 0
248 -899 0
-248 899 0
902 -903 0
904 902 0
903 -904 -902 0
251 -902 0
-251 902 0
905 -906 0
907 905 0
906 -907 -905 0
253 -905 0
-253 905 0
908 -909 0
910 908 0
909 -910 -908 0
254 -908 0
-254 908 0
911 -912 0
913 911 0
912 -913 -911 0
255 -911 0
-255 911 0
914 -915 0
916 914 0
915 -916 -914 0
256 -914 0
-256 914 0
917 -918 0
919 917 0
918 -919 -917 0
271 -917 0
-271 917 0
920 -921 0
922 920 0
921 -922 -920 0
273 -920 0
-273 920 0
923 -924 0
925 923 0
924 -925 -923 0
274 -923 0
-274 923 0
926 -927 0
928 926 0
927 -928 -926 0
275 -926 0
-275 926 0
929 -930 0
931 929 0
930 -931 -929 0
276 -929 0
-276 929 0
932 -933 0
934 932 0
933 -934 -932 0
277 -932 0
-277 932 0
935 -936 0
937 935 0
936 -937 -935 0
278 -935 0
-278 935 0
938 -939 0
940 938 0
939 -940 -938 0
279 -938 0
-279 938 0
941 -942 0
943 941 0
942 -943 -941 0
305 -941 0
-305 941 0
944 -945 0
946 944 0
945 -946 -944 0
307 -944 0
-307 944 0
947 -948 0
949 947 0
948 -949 -947 0
308 -947 0
-308 947 0
950 -951 0
952 950 0
951 -952 -950 0
309 -950 0
-309 950 0
953 -954 0
955 953 0
954 -955 -953 0
310 -953 0
-310 953 0
956 -957 0
958 956 0
957 -958 -956 0
311 -956 0
-311 956 0
959 -960 0
961 959 0
960 -961 -959 0
312 -959 0
-312 959 0
962 -963 0
964 962 0
963 -964 -962 0
335 -962 0
-335 962 0
965 -966 0
967 965 0
966 -967 -965 0
336 -965 0
-336 965 0
968 -969 0
970 968 0
969 -970 -968 0
337 -968 0
-337 968 0
971 -972 0
973 971 0
972 -973 -971 0
349 -971 0
-349 971 0
974 -975 0
976 974 0
975 -976 -974 0
351 -974 0
-351 974 0
977 -978 0
979 977 0
978 -979 -977 0
352 -977 0
-352 977 0
980 -981 0
982 980 0
981 -982 -980 0
353 -980 0
-353 980 0
983 -984 0
985 983 0
984 -985 -983 0
354 -983 0
-354 983 0
986 -987 0
988 986 0
987 -988 -986 0
355 -986 0
-355 986 0
989 -990 0
991 989 0
990 -991 -989 0
375 -989 0
-375 989 0
992 -993 0
994 992 0
993 -994 -992 0
377 -992 0
-377 992 0
995 -996 0
997 995 0
996 -997 -995 0
378 -995 0
-378 995 0
998 -999 0
1000 998 0
999 -1000 -998 0
379 -998 0
-379 998 0
1001 -1002 0
1003 1001 0
1002 -1003 -1001 0
380 -1001 0
-380 1001 0
1004 -1005 0
1006 1004 0
1005 -1006 -1004 0
381 -1004 0
-381 1004 0
1007 -1008 0
1009 1007 0
1008 -1009 -1007 0
382 -1007 0
-382 1007 0
1010 -1011 0
1012 1010 0
1011 -1012 -1010 0
405 -1010 0
-405 1010 0
1013 -1014 0
1015 1013 0
1014 -1015 -1013 0
407 -1013 0
-407 1013 0
1016 -1017 0
1018 1016 0
1017 -1018 -1016 0
408 -1016 0
-408 1016 0
1019 -1020 0
1021 1019 0
1020 -1021 -1019 0
409 -1019 0
-409 1019 0
1022 -1023 0
1024 1022 0
1023 -1024 -1022 0
410 -1022 0
-410 1022 0
1025 -1026 0
1027 1025 0
1026 -1027 -1025 0
411 -1025 0
-411 1025 0
1028 -1029 0
1030 1028 0
1029 -1030 -1028 0
429 -1028 0
-429 1028 0
1031 -1032 0
1033 1031 0
1032 -1033 -1031 0
431 -1031 0
-431 1031 0
1034 -1035 0
1036 1034 0
1035 -1036 -1034 0
432 -1034 0
-432 1034 0
1037 -1038 0
1039 1037 0
1038 -1039 -1037 0
433 -1037 0
-433 1037 0
1040 -1041 0
1042 1040 0
1041 -1042 -1040 0
434 -1040 0
-434 1040 0
1043 -1044 0
1045 1043 0
1044 -1045 -1043 0
435 -1043 0
-435 1043 0
1046 -1047 0
1048 1046 0
1047 -1048 -1046 0
436 -1046 0
-436 1046 0
1049 -1050 0
1051 1049 0
1050 -1051 -1049 0
459 -1049 0
-459 1049 0
1052 -1053 0
1054 1052 0
1053 -1054 -1052 0
461 -1052 0
-461 1052 0
1055 -1056 0
1057 1055 0
1056 -1057 -1055 0
462 -1055 0
-462 1055 0
1058 -1059 0
1060 1058 0
1059 -1060 -1058 0
463 -1058 0
-463 1058 0
1061 -1062 0
1063 1061 0
1062 -1063 -1061 0
464 -1061 0
-464 1061 0
1064 -1065 0
1066 1064 0
1065 -1066 -1064 0
465 -1064 0
-465 1064 0
1067 -1068 0
1069 1067 0
1068 -1069 -1067 0
485 -1067 0
-485 1067 0
1070 -1071 0
1072 1070 0
1071 -1072 -1070 0
486 -1070 0
-486 1070 0
1073 -1074 0
1075 1073 0
1074 -1075 -1073 0
487 -1073 0
-487 1073 0
1076 -1077 0
1078 1076 0
1077 -1078 -1076 0
500 -1076 0
-500 1076 0
1079 -1080 0
1081 1079 0
1080 -1081 -1079 0
501 -1079 0
-501 1079 0
1082 -1083 0
1084 1082 0
1083 -1084 -1082 0
508 -1082 0
-508 1082 0
1085 -1086 0
1087 1085 0
1086 -1087 -1085 0
510 -1085 0
-510 1085 0
1088 -1089 0
1090 1088 0
1089 -1090 -1088 0
511 -1088 0
-511 1088 0
1091 -1092 0
1093 1091 0
1092 -1093 -1091 0
512 -1091 0
-512 1091 0
1094 -1095 0
1096 1094 0
1095 -1096 -1094 0
513 -1094 0
-513 1094 0
1097 -1098 0
1099 1097 0
1098 -1099 -1097 0
529 -1097 0
-529 1097 0
1100 -1101 0
1102 1100 0
1101 -1102 -1100 0
531 -1100 0
-531 1100 0
1103 -1104 0
1105 1103 0
1104 -1105 -1103 0
532 -1103 0
-532 1103 0
1106 -1107 0
1108 1106 0
1107 -1108 -1106 0
533 -1106 0
-533 1106 0
1109 -1110 0
1111 1109 0
1110 -1111 -1109 0
534 -1109 0
-534 1109 0
1112 -1113 0
1114 1112 0
1113 -1114 -1112 0
535 -1112 0
-535 1112 0
1115 -1116 0
1117 1115 0
1116 -1117 -1115 0
554 -1115 0
-554 1115 0
1118 -1119 0
1120 1118 0
1119 -1120 -1118 0
556 -1118 0
-556 1118 0
1121 -1122 0
1123 1121 0
1122 -1123 -1121 0
557 -1121 0
-557 1121 0
1124 -1125 0
1126 1124 0
1125 -1126 -1124 0
569 -1124 0
-569 1124 0
1127 -1128 0
1129 1127 0
1128 -1129 -1127 0
571 -1127 0
-571 1127 0
1130 -1131 0
1132 1130 0
1131 -1132 -1130 0
572 -1130 0
-572 1130 0
1133 -1134 0
1135 1133 0
1134 -1135 -1133 0
573 -1133 0
-573 1133 0
1136 -1137 0
1138 1136 0
1137 -1138 -1136 0
574 -1136 0
-574 1136 0
1139 -1140 0
1141 1139 0
1140 -1141 -1139 0
575 -1139 0
-575 1139 0
1142 -1143 0
1144 1142 0
1143 -1144 -1142 0
576 -1142 0
-576 1142 0
1145 -1146 0
1147 1145 0
1146 -1147 -1145 0
577 -1145 0
-577 1145 0
1148 -1149 0
1150 1148 0
1149 -1150 -1148 0
603 -1148 0
-603 1148 0
1151 -1152 0
1153 1151 0
1152 -1153 -1151 0
605 -1151 0
-605 1151 0
1154 -1155 0
1156 1154 0
1155 -1156 -1154 0
606 -1154 0
-606 1154 0
1157 -1158 0
1159 1157 0
1158 -1159 -1157 0
607 -1157 0
-607 1157 0
1160 -1161 0
1162 1160 0
1161 -1162 -1160 0
608 -1160 0
-608 1160 0
1163 -1164 0
1165 1163 0
1164 -1165 -1163 0
624 -1163 0
-624 1163 0
1166 -1167 0
1168 1166 0
1167 -1168 -1166 0
626 -1166 0
-626 1166 0
1169 -1170 0
1171 1169 0
1170 -1171 -1169 0
627 -1169 0
-627 1169 0
1172 -1173 0
1174 1172 0
1173 -1174 -1172 0
628 -1172 0
-628 1172 0
1175 -1176 0
1177 1175 0
1176 -1177 -1175 0
640 -1175 0
-640 1175 0
1178 -1179 0
1180 1178 0
1179 -1180 -1178 0
645 -1178 0
-645 1178 0
1181 -1182 0
1183 1181 0
1182 -1183 -1181 0
649 -1181 0
-649 1181 0
1184 -1185 0
1186 1184 0
1185 -1186 -1184 0
651 -1184 0
-651 1184 0
1187 -1188 0
1189 1187 0
1188 -1189 -1187 0
652 -1187 0
-652 1187 0
1190 -1191 0
1192 1190 0
1191 -1192 -1190 0
653 -1190 0
-653 1190 0
1193 -1194 0
1195 1193 0
1194 -1195 -1193 0
666 -1193 0
-666 1193 0
1196 -1197 0
1198 1196 0
1197 -1198 -1196 0
667 -1196 0
-667 1196 0
1199 -1200 0
1201 1199 0
1200 -1201 -1199 0
668 -1199 0
-668 1199 0
1202 -1203 0
1204 1202 0
1203 -1204 -1202 0
669 -1202 0
-669 1202 0
1205 -1206 0
1207 1205 0
1206 -1207 -1205 0
684 -1205 0
-684 1205 0
1208 -1209 0
1210 1208 0
1209 -1210 -1208 0
686 -1208 0
-686 1208 0
1211 -1212 0
1213 1211 0
1212 -1213 -1211 0
694 -1211 0
-694 1211 0
1214 -1215 0
1216 1214 0
1215 -1216 -1214 0
696 -1214 0
-696 1214 0
1217 -1218 0
1219 1217 0
1218 -1219 -1217 0
697 -1217 0
-697 1217 0
1220 -1221 0
1222 1220 0
1221 -1222 -1220 0
708 -1220 0
-708 1220 0
1223 -1224 0
1225 1223 0
1224 -1225 -1223 0
710 -1223 0
-710 1223 0
1226 -1227 0
1228 1226 0
1227 -1228 -1226 0
714 -1226 0
-714 1226 0
1229 -1230 0
1231 1229 0
1230 -1231 -1229 0
716 -1229 0
-716 1229 0
1232 -1233 0
1234 1232 0
1233 -1234 -1232 0
717 -1232 0
-717 1232 0
1235 -1236 0
1237 1235 0
1236 -1237 -1235 0
718 -1235 0
-718 1235 0
730 0
733 0
-736 0
-739 0
742 0
-745 0
748 0
-751 0
754 0
-757 0
-760 0
-763 0
766 0
-769 0
-772 0
775 0
-778 0
-781 0
784 0
787 0
790 0
793 0
-796 0
-799 0
802 0
-805 0
-808 0
-811 0
814 0
817 0
-820 0
823 0
826 0
-829 0
-832 0
-835 0
-838 0
841 0
-844 0
847 0
850 0
-853 0
-856 0
-859 0
862 0
-865 0
-868 0
-871 0
-874 0
-877 0
-880 0
-883 0
-886 0
-889 0
-892 0
-895 0
-898 0
-901 0
904 0
-907 0
-910 0
-913 0
-916 0
-919 0
922 0
-925 0
928 0
-931 0
-934 0
937 0
940 0
943 0
946 0
-949 0
952 0
955 0
-958 0
961 0
-964 0
-967 0
970 0
973 0
-976 0
979 0
-982 0
-985 0
-988 0
-991 0
-994 0
997 0
-1000 0
1003 0
1006 0
-1009 0
1012 0
-1015 0
1018 0
1021 0
-1024 0
1027 0
-1030 0
-1033 0
-1036 0
1039 0
1042 0
-1045 0
1048 0
-1051 0
1054 0
-1057 0
1060 0
-1063 0
-1066 0
-1069 0
-1072 0
-1075 0
-1078 0
1081 0
1084 0
-1087 0
1090 0
1093 0
-1096 0
1099 0
-1102 0
1105 0
1108 0
1111 0
-1114 0
1117 0
1120 0
1123 0
-1126 0
1129 0
1132 0
1135 0
-1138 0
1141 0
1144 0
-1147 0
1150 0
-1153 0
-1156 0
1159 0
1162 0
1165 0
-1168 0
1171 0
-1174 0
-1177 0
1180 0
-1183 0
1186 0
1189 0
-1192 0
1195 0
-1198 0
-1201 0
1204 0
1207 0
-1210 0
1213 0
1216 0
1219 0
-1222 0
1225 0
-1228 0
1231 0
-1234 0
1237 0
5 0
10 0
16 0
31 0
50 0
56 0
64 0
74 0
95 0
106 0
124 0
149 0
172 0
177 0
182 0
189 0
201 0
208 0
221 0
228 0
242 0
249 0
-258 0
-281 0
-314 0
-339 0
-357 0
-384 0
-413 0
-438 0
-467 0
-489 0
-503 0
-515 0
-537 0
-559 0
-579 0
-610 0
-630 0
-642 0
-647 0
-655 0
-671 0
-688 0
-699 0
-711 0
-720 0
